tolerance 2.0
filetype xyz
output ionpairs.xyz

structure /mnt/d/PSID_oligomer/02_MLFF/20251019_GFNTest/02_XTB_IONPAIR_MD/5pairs/packmol/packmol_cases/case_001/structures/TFSI_01.xyz
  number 1
  inside box 0.0 0.0 0.0 15.0 15.0 15.0
end structure

structure /mnt/d/PSID_oligomer/02_MLFF/20251019_GFNTest/02_XTB_IONPAIR_MD/5pairs/packmol/packmol_cases/case_001/structures/TFSI_02.xyz
  number 1
  inside box 0.0 0.0 0.0 15.0 15.0 15.0
end structure

structure /mnt/d/PSID_oligomer/02_MLFF/20251019_GFNTest/02_XTB_IONPAIR_MD/5pairs/packmol/packmol_cases/case_001/structures/TFSI_03.xyz
  number 1
  inside box 0.0 0.0 0.0 15.0 15.0 15.0
end structure

structure /mnt/d/PSID_oligomer/02_MLFF/20251019_GFNTest/02_XTB_IONPAIR_MD/5pairs/packmol/packmol_cases/case_001/structures/TFSI_04.xyz
  number 1
  inside box 0.0 0.0 0.0 15.0 15.0 15.0
end structure

structure /mnt/d/PSID_oligomer/02_MLFF/20251019_GFNTest/02_XTB_IONPAIR_MD/5pairs/packmol/packmol_cases/case_001/structures/TFSI_05.xyz
  number 1
  inside box 0.0 0.0 0.0 15.0 15.0 15.0
end structure

structure /mnt/d/PSID_oligomer/02_MLFF/20251019_GFNTest/02_XTB_IONPAIR_MD/5pairs/packmol/packmol_cases/case_001/structures/VBBI_01.xyz
  number 1
  inside box 0.0 0.0 0.0 15.0 15.0 15.0
end structure

structure /mnt/d/PSID_oligomer/02_MLFF/20251019_GFNTest/02_XTB_IONPAIR_MD/5pairs/packmol/packmol_cases/case_001/structures/VBBI_02.xyz
  number 1
  inside box 0.0 0.0 0.0 15.0 15.0 15.0
end structure

structure /mnt/d/PSID_oligomer/02_MLFF/20251019_GFNTest/02_XTB_IONPAIR_MD/5pairs/packmol/packmol_cases/case_001/structures/VBBI_03.xyz
  number 1
  inside box 0.0 0.0 0.0 15.0 15.0 15.0
end structure

structure /mnt/d/PSID_oligomer/02_MLFF/20251019_GFNTest/02_XTB_IONPAIR_MD/5pairs/packmol/packmol_cases/case_001/structures/VBBI_04.xyz
  number 1
  inside box 0.0 0.0 0.0 15.0 15.0 15.0
end structure

structure /mnt/d/PSID_oligomer/02_MLFF/20251019_GFNTest/02_XTB_IONPAIR_MD/5pairs/packmol/packmol_cases/case_001/structures/VBBI_05.xyz
  number 1
  inside box 0.0 0.0 0.0 15.0 15.0 15.0
end structure

seed 1001
randominitialpoint